p cnf 13 15
-2 -7 -10 0
-6 -9 -10 -11 0
-2 -9 -11 0
-1 -6 -9 0
-6 -7 -9 0
-6 -7 -10 0
-2 -6 -7 0
-1 -6 -7 0
-4 -6 -7 0
-6 -7 -13 0
-6 -7 -8 0
-6 -7 -11 -12 0
-3 -6 -7 -11 0
-3 -5 -12 0
-3 -6 -7 -12 0
